NAME : n40w140.002.459.tour
COMMENT : Length = 459
COMMENT : Found by LKH [Keld Helsgaun] Tue Nov  7 19:39:12 2017
TYPE : TOUR
DIMENSION : 41
TOUR_SECTION
1
6
36
16
8
23
37
12
35
2
40
27
26
33
13
4
20
19
15
30
28
14
18
3
24
25
31
17
32
9
5
7
29
22
11
34
39
41
38
10
21
-1
EOF
